p edge 50 302 10
v 9 5 6 22 23 24 31 33 38 48
v 3 14 29 47
v 4 3 12 39 42
v 7 9 13 16 17 35 43 46
v 6 7 21 25 28 41 44
v 2 10 36
v 4 4 18 34 45
v 4 20 32 37 40
v 6 1 2 15 19 27 50
v 5 8 11 26 30 49
e 1 2
e 1 4
e 1 9
e 1 13
e 1 14
e 1 30
e 1 34
e 1 35
e 1 37
e 1 49
e 2 4
e 2 8
e 2 9
e 2 13
e 2 14
e 2 17
e 2 25
e 2 28
e 2 31
e 2 32
e 2 38
e 2 48
e 3 6
e 3 9
e 3 12
e 3 13
e 3 14
e 3 30
e 3 34
e 3 47
e 4 14
e 4 18
e 4 23
e 4 32
e 4 34
e 4 40
e 4 43
e 5 7
e 5 11
e 5 12
e 5 19
e 5 20
e 5 21
e 5 22
e 5 27
e 5 31
e 5 33
e 5 37
e 5 40
e 5 42
e 5 46
e 5 47
e 5 49
e 6 9
e 6 16
e 6 20
e 6 22
e 6 30
e 6 35
e 6 36
e 6 43
e 6 44
e 6 45
e 6 47
e 7 11
e 7 15
e 7 19
e 7 20
e 7 21
e 7 26
e 7 27
e 7 28
e 7 30
e 7 31
e 7 35
e 7 37
e 7 43
e 7 47
e 7 49
e 8 9
e 8 26
e 8 27
e 8 29
e 8 30
e 8 33
e 8 34
e 8 41
e 9 15
e 9 19
e 9 24
e 9 25
e 9 28
e 9 32
e 9 35
e 9 36
e 9 43
e 10 12
e 10 14
e 10 15
e 10 23
e 10 29
e 10 30
e 10 33
e 10 36
e 10 38
e 10 40
e 10 44
e 10 46
e 10 50
e 11 14
e 11 15
e 11 17
e 11 25
e 11 26
e 11 30
e 11 33
e 11 35
e 11 37
e 11 43
e 11 46
e 12 13
e 12 21
e 12 26
e 12 30
e 12 31
e 12 32
e 12 34
e 12 38
e 12 41
e 12 46
e 12 48
e 13 14
e 13 19
e 13 25
e 13 28
e 13 32
e 13 34
e 13 36
e 13 38
e 13 40
e 14 16
e 14 17
e 14 23
e 14 24
e 14 25
e 14 31
e 14 38
e 14 39
e 14 40
e 15 16
e 15 19
e 15 20
e 15 21
e 15 26
e 15 29
e 15 32
e 15 37
e 15 43
e 16 17
e 16 19
e 16 34
e 16 36
e 16 37
e 16 38
e 16 39
e 16 46
e 16 48
e 17 30
e 17 31
e 17 33
e 17 35
e 17 36
e 17 39
e 17 40
e 17 42
e 17 43
e 18 27
e 18 33
e 18 41
e 18 45
e 18 47
e 19 26
e 19 28
e 19 29
e 19 31
e 19 34
e 19 36
e 19 40
e 19 46
e 19 49
e 20 23
e 20 27
e 20 31
e 20 32
e 20 36
e 20 41
e 20 42
e 20 47
e 21 22
e 21 24
e 21 25
e 21 27
e 21 28
e 21 29
e 21 36
e 21 41
e 22 32
e 22 33
e 22 44
e 23 27
e 23 29
e 23 35
e 24 25
e 24 28
e 24 29
e 24 30
e 24 35
e 24 39
e 24 46
e 25 29
e 25 33
e 25 35
e 25 37
e 25 43
e 25 44
e 25 46
e 26 34
e 26 42
e 26 43
e 26 45
e 26 46
e 26 47
e 26 49
e 27 28
e 27 31
e 27 32
e 27 36
e 27 44
e 27 46
e 28 29
e 28 31
e 28 32
e 28 33
e 28 35
e 28 40
e 28 43
e 29 32
e 29 37
e 29 38
e 29 41
e 29 46
e 29 48
e 30 37
e 30 42
e 30 43
e 30 44
e 30 46
e 30 49
e 31 34
e 31 39
e 31 43
e 32 39
e 33 38
e 33 47
e 34 35
e 34 36
e 34 38
e 34 41
e 34 46
e 34 47
e 35 36
e 35 38
e 35 45
e 36 39
e 36 40
e 36 41
e 36 43
e 36 46
e 36 47
e 36 48
e 37 44
e 37 48
e 37 50
e 38 39
e 38 41
e 38 45
e 39 40
e 39 44
e 39 47
e 40 42
e 40 45
e 40 47
e 40 48
e 40 49
e 40 50
e 41 46
e 41 48
e 42 46
e 43 44
e 44 47
e 45 48
e 45 49
